networks/zoo_26_94/zoo_26_94.sol
<?xml version = "1.0" encoding="UTF-8" standalone="yes"?>
<CPLEXSolution version="1.2">
 <header
   problemName="networks/zoo_26_94/zoo_26_94.lp"
   solutionName="incumbent"
   solutionIndex="-1"
   objectiveValue="18"
   solutionTypeValue="3"
   solutionTypeString="primal"
   solutionStatusValue="101"
   solutionStatusString="integer optimal solution"
   solutionMethodString="mip"
   primalFeasible="1"
   dualFeasible="1"
   MIPNodes="0"
   MIPIterations="952"
   writeLevel="3"/>
 <quality
   epInt="1.0000000000000001e-05"
   epRHS="9.9999999999999995e-07"
   maxIntInfeas="0"
   maxPrimalInfeas="1.7763568394002505e-15"
   maxX="4"
   maxSlack="10"/>
 <variables>
  <variable name="Y(8,12)" index="179" value="1"/>
  <variable name="Y(9,5)" index="196" value="1"/>
  <variable name="Y(15,9)" index="344" value="1"/>
  <variable name="Y(21,3)" index="482" value="1"/>
  <variable name="Y(27,5)" index="628" value="1"/>
  <variable name="Y(28,13)" index="660" value="1"/>
  <variable name="Y(29,3)" index="674" value="1"/>
  <variable name="Y(39,1)" index="912" value="1"/>
  <variable name="Y(42,5)" index="988" value="1"/>
  <variable name="Y(49,2)" index="1153" value="1"/>
  <variable name="Y(52,8)" index="1231" value="1"/>
  <variable name="Y(66,4)" index="1563" value="1"/>
  <variable name="Y(68,7)" index="1614" value="1"/>
  <variable name="Y(79,6)" index="1877" value="1"/>
  <variable name="Y(89,7)" index="2118" value="1"/>
  <variable name="Y(91,5)" index="2164" value="1"/>
  <variable name="Y(92,10)" index="2193" value="1"/>
  <variable name="Y(93,11)" index="2218" value="1"/>
  <variable name="X(1,11,8)" index="2263" value="1"/>
  <variable name="X(1,14,39)" index="2388" value="1"/>
  <variable name="X(2,5,27)" index="2470" value="1"/>
  <variable name="X(2,13,28)" index="2565" value="1"/>
  <variable name="X(2,15,49)" index="2680" value="1"/>
  <variable name="X(3,2,29)" index="2754" value="1"/>
  <variable name="X(3,4,21)" index="2840" value="1"/>
  <variable name="X(4,3,29)" index="2942" value="1"/>
  <variable name="X(4,17,66)" index="3073" value="1"/>
  <variable name="X(5,2,49)" index="3150" value="1"/>
  <variable name="X(5,4,66)" index="3261" value="1"/>
  <variable name="X(5,7,89)" index="3378" value="1"/>
  <variable name="X(5,8,91)" index="3474" value="1"/>
  <variable name="X(5,12,27)" index="3504" value="1"/>
  <variable name="X(5,13,9)" index="3580" value="1"/>
  <variable name="X(5,18,42)" index="3707" value="1"/>
  <variable name="X(6,7,42)" index="3801" value="1"/>
  <variable name="X(6,8,39)" index="3892" value="1"/>
  <variable name="X(6,19,79)" index="4026" value="1"/>
  <variable name="X(7,5,42)" index="4083" value="1"/>
  <variable name="X(7,6,89)" index="4224" value="1"/>
  <variable name="X(7,8,52)" index="4281" value="1"/>
  <variable name="X(7,20,68)" index="4391" value="1"/>
  <variable name="X(8,5,9)" index="4426" value="1"/>
  <variable name="X(8,6,79)" index="4590" value="1"/>
  <variable name="X(8,7,68)" index="4673" value="1"/>
  <variable name="X(8,11,39)" index="4738" value="1"/>
  <variable name="X(8,21,52)" index="4845" value="1"/>
  <variable name="X(9,10,66)" index="4953" value="1"/>
  <variable name="X(9,11,68)" index="5049" value="1"/>
  <variable name="X(9,22,15)" index="5090" value="1"/>
  <variable name="X(10,9,92)" index="5261" value="1"/>
  <variable name="X(10,12,66)" index="5329" value="1"/>
  <variable name="X(11,1,39)" index="5396" value="1"/>
  <variable name="X(11,8,68)" index="5519" value="1"/>
  <variable name="X(11,9,15)" index="5560" value="1"/>
  <variable name="X(11,12,8)" index="5647" value="1"/>
  <variable name="X(11,24,93)" index="5826" value="1"/>
  <variable name="X(12,5,66)" index="5893" value="1"/>
  <variable name="X(12,10,92)" index="6013" value="1"/>
  <variable name="X(12,11,93)" index="6108" value="1"/>
  <variable name="X(12,25,8)" index="6117" value="1"/>
  <variable name="X(13,26,28)" index="6231" value="1"/>
  <variable name="C(8,11)" index="6325" value="1"/>
  <variable name="C(8,12)" index="6326" value="2"/>
  <variable name="C(9,5)" index="6330" value="1"/>
  <variable name="C(15,9)" index="6352" value="1"/>
  <variable name="C(27,5)" index="6396" value="1"/>
  <variable name="C(28,13)" index="6400" value="1"/>
  <variable name="C(29,3)" index="6402" value="1"/>
  <variable name="C(39,8)" index="6428" value="1"/>
  <variable name="C(39,11)" index="6429" value="2"/>
  <variable name="C(39,1)" index="6430" value="3"/>
  <variable name="C(42,7)" index="6440" value="1"/>
  <variable name="C(42,5)" index="6441" value="2.0000000000000018"/>
  <variable name="C(49,2)" index="6463" value="1"/>
  <variable name="C(52,8)" index="6470" value="1"/>
  <variable name="C(66,10)" index="6511" value="1"/>
  <variable name="C(66,12)" index="6512" value="2"/>
  <variable name="C(66,5)" index="6513" value="3"/>
  <variable name="C(66,4)" index="6514" value="4"/>
  <variable name="C(68,11)" index="6520" value="1"/>
  <variable name="C(68,8)" index="6521" value="2"/>
  <variable name="C(68,7)" index="6522" value="3"/>
  <variable name="C(79,6)" index="6558" value="1"/>
  <variable name="C(89,7)" index="6585" value="1"/>
  <variable name="C(92,10)" index="6594" value="1"/>
  <variable name="C(93,11)" index="6597" value="1"/>
 </variables>
</CPLEXSolution>
